opti prop conp 
title
anthracene isoPAHAP molecule test
end

cart
C3    0.72229660   1.22356642   0.00000000   0.23448000
C3   -0.72229660   1.22356642   0.00000000   0.23448000
C3    0.72229660  -1.22356642   0.00000000   0.23448000
C3   -0.72229660  -1.22356642   0.00000000   0.23448000
C4   -1.40318837   0.00000000   0.00000000  -0.47174000
C4    1.40318837   0.00000000   0.00000000  -0.47174000
C2    1.40675383   2.47856602   0.00000000  -0.25252000
C2   -1.40675383   2.47856602   0.00000000  -0.25252000
C2    1.40675383  -2.47856602   0.00000000  -0.25252000
C2   -1.40675383  -2.47856602   0.00000000  -0.25252000
C1    0.71289098  -3.65941040   0.50000000  -0.11389000
C1   -0.71289098  -3.65941040   0.00000000  -0.11389000
C1    0.71289098   3.65941040   0.00000000  -0.11389000
C1   -0.71289098   3.65941040   0.00000000  -0.11389000
H2    2.49397050  -2.47512752   0.00000000   0.14291000
H1    1.24541412  -4.60627279   0.00000000   0.12531000
H1   -1.24541412  -4.60627279   0.00000000   0.12531000
H2   -2.49397050  -2.47512752   0.00000000   0.14291000
H2    2.49397050   2.47512752   0.00000000   0.14291000
H1    1.24541412   4.60627279   0.00000000   0.12531000
H1   -1.24541412   4.60627279   0.00000000   0.12531000
H2   -2.49397050   2.47512752   0.00000000   0.14291000
H3   -2.49115622   0.00000000   0.00000000   0.19915000
H3    2.49115622   0.00000000   0.00000000   0.19915000

#library reaxff

#buck
#C core C core 2315.07865958    1.00608363  0.0 12.0
#C core H core  163.85271158    1.07615426  0.0 12.0
#H core H core    8.85422348    1.34567178  0.0 12.0
#
#damped_dispersion 
#C core C core  18.09427559 0.0 0.0 3.11521 0.0 0.0 0.0 25
#C core H core   7.53181242 0.0 0.0 3.11521 0.0 0.0 0.0 25
#H core H core   3.11782975 0.0 0.0 3.11521 0.0 0.0 0.0 25

harmonic 
C1 core C2 core 23497.6744  1.37 2.0
C2 core C3 core 19372.0930  1.43 2.0
C3 core C4 core 21518.6047  1.40 2.0
C1 core C1 core 19372.0930  1.42 2.0
C3 core C3 core 19372.0930  1.44 2.0
C  core H  core 16906.9767  1.1  2.0 

three 
C2 core C1 core C3 core   2635.86342399   120.50  2.0 2.0 3.5
C1 core C2 core C1 core   2635.86342399   120.70  2.0 2.0 3.5
C3 core C2 core C3 core   2589.74157930   118.70  2.0 2.0 3.5
C3 core C2 core C4 core   1826.42504970   121.80  2.0 2.0 3.5
C1 core C2 core H1 core   1189.94359298   119.70  2.0 2.0 3.5
C2 core C1 core H2 core   1233.75934544   119.80  2.0 2.0 3.5
C4 core C3 core H3 core   1233.75934544   119.50  2.0 2.0 3.5

torharm
C1 core C2 core C3 core C4 core    331.61606332   180.00  2.0 2.0 2.0 6.0
C2 core C3 core C4 core C3 core    362.97891770   180.00  2.0 2.0 2.0 6.0
C1 core C2 core C3 core C3 core    388.11532306     0.00  2.0 2.0 2.0 6.0
C2 core C3 core C3 core C2 core    388.11532306     0.00  2.0 2.0 2.0 6.0
C2 core C1 core C1 core C2 core    365.05440072     0.00  2.0 2.0 2.0 6.0
C1 core C1 core C2 core C3 core    388.11532306     0.00  2.0 2.0 2.0 6.0
C2 core C3 core C3 core C4 core    396.87847355   180.00  2.0 2.0 2.0 6.0
C3 core C4 core C3 core C3 core    411.17624541     0.00  2.0 2.0 2.0 6.0
C4 core C3 core C3 core C4 core    379.81339102     0.00  2.0 2.0 2.0 6.0
C3 core C3 core C4 core C3 core    388.11532306     0.00  2.0 2.0 2.0 6.0
H1 core C1 core C2 core C3 core    269.35157299   180.00  2.0 2.0 2.0 6.0
H1 core C1 core C1 core C2 core    308.09392252   180.00  2.0 2.0 2.0 6.0
H2 core C2 core C1 core C1 core    154.04696126   180.00  2.0 2.0 2.0 6.0
H2 core C2 core C3 core C3 core    154.04696126   180.00  2.0 2.0 2.0 6.0
H2 core C2 core C3 core C4 core    265.20060696     0.00  2.0 2.0 2.0 6.0
H3 core C4 core C3 core C2 core    164.42437632     0.00  2.0 2.0 2.0 6.0
H3 core C4 core C3 core C3 core    154.04696126   180.00  2.0 2.0 2.0 6.0
H1 core C1 core C2 core H2 core    228.76434966     0.00  2.0 2.0 2.0 6.0
H1 core C1 core C1 core H1 core    228.76434966     0.00  2.0 2.0 2.0 6.0